60	100	100	100
2	16	21
25	27	10
4	3	11
10	16	19
2	16	7
27	26	18
17	16	11
19	34	14
6	19	5
30	17	34
14	3	4
2	16	24
24	14	22
30	32	10
17	1	16
1	34	14
6	30	30
9	7	12
3	23	28
19	12	14
9	7	14
4	6	27
17	11	7
1	1	20
33	3	7
13	23	24
14	33	28
15	27	8
30	16	7
26	28	4
8	19	17
28	21	9
1	13	14
29	21	12
13	11	19
18	14	31
8	20	23
2	11	5
32	14	9
26	18	3
30	3	23
22	2	29
6	20	6
29	34	25
21	8	32
16	32	17
13	17	34
7	6	27
13	1	15
7	32	26
13	8	10
4	12	30
33	1	22
16	2	27
1	2	8
24	5	21
34	10	30
28	31	18
2	7	5
14	22	10
